3
25
61
40	31
1	2	6	11	10	5	
2	3	15	4	30	2	7	6	
3	3	12	6	20	3	5	9	
4	3	5	7	9	7	9	7	
5	3	29	2	18	4	5	14	
6	1	23	4	
7	2	7	10	10	5	
8	3	31	3	7	14	10	4	
9	3	4	15	11	4	20	4	
10	1	11	4	
11	3	9	5	15	6	14	3	
12	1	16	4	
13	3	9	5	12	3	31	3	
14	3	6	7	19	3	8	11	
15	2	4	14	13	8	
16	3	7	11	14	3	28	3	
17	3	14	5	16	4	10	8	
18	3	10	5	6	6	7	12	
19	3	8	10	18	3	13	7	
20	2	12	8	25	3	
21	2	5	6	20	4	
22	3	4	11	5	8	11	4	
23	1	29	3	
24	2	30	4	12	5	
25	3	18	2	25	3	8	7	
